p cnf 364 1113
c ind 329 319 333 345 361 341 343 362 337 335 0
c ind 339 353 359 317 347 323 355 331 349 321 0
c ind 325 314 351 357 327 310 313 312 311 346 0
c ind 354 322 315 360 320 330 326 352 324 328 0
c ind 350 348 356 358 318 342 332 338 316 336 0
c ind 340 344 334 1 0
c ret 246 247 248 249 250 251 252 253 254 255 0
c ret 256 257 258 259 260 261 262 263 264 265 0
c ret 266 267 268 269 270 271 272 273 274 275 0
c ret 276 277 278 279 280 281 282 283 284 285 0
c ret 286 287 288 289 290 291 292 293 294 295 0
c ret 296 297 298 299 300 301 302 303 304 305 0
c ret 306 307 308 309 0
2 -3 -34 -203 -222 0
-2 222 0
-2 3 0
-2 203 0
-2 34 0
3 -4 -13 -19 -30 0
-3 30 0
-3 4 0
-3 19 0
-3 13 0
4 5 9 0
4 -8 9 -265 0
4 8 9 265 0
-4 -9 0
-4 -5 -8 265 0
-4 -5 8 -265 0
5 6 347 0
-5 -347 0
-5 -6 0
6 -7 -297 0
6 7 297 0
-6 -7 297 0
-6 7 -297 0
7 264 -312 0
7 -264 312 0
-7 -264 -312 0
-7 264 312 0
8 298 -348 0
8 -298 348 0
-8 -298 -348 0
-8 298 348 0
9 10 -11 -275 308 0
9 -10 -11 275 308 0
9 -10 -11 -275 -308 0
-9 11 0
-9 10 -308 0
-9 275 -308 0
-9 10 275 0
-9 -10 -275 308 0
10 -276 309 0
-10 276 0
-10 -309 0
11 -12 -307 0
11 12 307 0
-11 -12 307 0
-11 12 -307 0
12 274 -315 0
12 -274 315 0
-12 -274 -315 0
-12 274 315 0
13 14 15 0
13 14 18 269 0
13 14 -18 -269 0
-13 -14 0
-13 -15 18 -269 0
-13 -15 -18 269 0
14 254 -287 328 0
14 254 311 328 0
14 -287 311 328 0
-14 -254 -311 0
-14 -254 287 0
-14 -328 0
-14 287 -311 0
15 16 353 0
-15 -353 0
-15 -16 0
16 -17 -301 0
16 17 301 0
-16 -17 301 0
-16 17 -301 0
17 268 -313 0
17 -268 313 0
-17 -268 -313 0
-17 268 313 0
18 302 -354 0
18 -302 354 0
-18 -302 -354 0
-18 302 354 0
15 19 20 -21 0
19 20 -21 -269 0
-19 21 0
-19 -20 0
-15 -19 269 0
20 270 -303 354 0
20 270 314 354 0
20 -303 314 354 0
-20 -270 -314 0
-20 -270 303 0
-20 -354 0
-20 303 -314 0
21 22 26 0
21 22 29 271 0
21 22 -29 -271 0
-21 -22 0
-21 -26 29 -271 0
-21 -26 -29 271 0
22 23 -25 255 329 0
22 23 25 -255 329 0
-22 -329 0
-22 -25 -255 0
-22 -23 0
-22 25 255 0
23 -24 -287 0
23 24 287 0
-23 -24 287 0
-23 24 -287 0
24 254 -311 0
24 -254 311 0
-24 -254 -311 0
-24 254 311 0
25 288 -330 0
25 -288 330 0
-25 -288 -330 0
-25 288 330 0
26 27 355 0
-26 -355 0
-26 -27 0
27 -28 -303 0
27 28 303 0
-27 -28 303 0
-27 28 -303 0
28 270 -314 0
28 -270 314 0
-28 -270 -314 0
-28 270 314 0
29 304 -356 0
29 -304 356 0
-29 -304 -356 0
-29 304 356 0
30 -31 33 -271 0
26 30 -31 33 0
-30 31 0
-30 -33 0
-26 -30 271 0
31 32 -265 0
5 31 32 0
-31 -32 0
-5 -31 265 0
32 248 -281 318 0
32 248 310 318 0
32 -281 310 318 0
-32 -248 -310 0
-32 -248 281 0
-32 -318 0
-32 281 -310 0
-10 11 33 275 -308 0
10 11 33 -275 -308 0
10 11 33 275 308 0
-11 -33 0
-33 -275 308 0
-10 -33 -275 0
-10 -33 308 0
10 -33 275 -308 0
34 -35 -160 -179 -190 0
-34 190 0
-34 35 0
-34 179 0
-34 160 0
35 -36 -118 -130 -135 0
-35 135 0
-35 36 0
-35 130 0
-35 118 0
36 -37 -59 -81 -97 0
-36 97 0
-36 37 0
-36 81 0
-36 59 0
37 -38 -43 -48 -53 0
-37 53 0
-37 38 0
-37 48 0
-37 43 0
38 -39 42 -321 0
38 -39 41 42 0
-38 39 0
-38 -42 0
-38 -41 321 0
39 40 345 0
39 40 344 346 0
-39 -40 0
-39 -345 -346 0
-39 -344 -345 0
40 304 355 356 0
-40 -304 0
-40 -356 0
-40 -355 0
41 283 322 0
-41 -283 0
-41 -322 0
42 280 317 318 0
-42 -280 0
-42 -318 0
-42 -317 0
43 -44 47 -337 0
43 -44 46 47 0
-43 44 0
-43 -47 0
-43 -46 337 0
44 45 348 0
44 45 347 349 0
-44 -45 0
-44 -348 -349 0
-44 -347 -348 0
45 296 345 346 0
-45 -296 0
-45 -346 0
-45 -345 0
46 292 338 0
-46 -292 0
-46 -338 0
47 -357 -358 0
47 -358 -359 0
-47 358 0
-47 357 359 0
48 -49 51 -357 0
48 -49 51 52 0
-48 49 0
-48 -51 0
-48 -52 357 0
49 50 343 0
49 50 342 344 0
-49 -50 0
-49 -343 -344 0
-49 -342 -343 0
50 258 334 335 0
-50 -258 0
-50 -335 0
-50 -334 0
51 298 347 348 0
-51 -298 0
-51 -348 0
-51 -347 0
52 305 358 0
-52 -305 0
-52 -358 0
53 54 -55 58 0
53 -55 58 352 0
-53 55 0
-53 -58 0
-53 -54 -352 0
54 -268 -313 0
-54 268 0
-54 313 0
55 56 57 0
55 -267 346 0
55 57 346 0
55 56 -267 0
-55 -56 -346 0
-55 -57 267 0
56 -264 -312 0
-56 264 0
-56 312 0
57 350 351 0
-57 -350 0
-57 -351 0
58 259 336 337 0
-58 -259 0
-58 -337 0
-58 -336 0
59 -60 -65 -71 -76 0
-59 76 0
-59 60 0
-59 71 0
-59 65 0
60 -61 63 -327 0
60 -61 63 64 0
-60 61 0
-60 -63 0
-60 -64 327 0
61 62 322 0
61 62 321 323 0
-61 -62 0
-61 -322 -323 0
-61 -321 -322 0
62 295 343 344 0
-62 -295 0
-62 -344 0
-62 -343 0
63 251 322 323 0
-63 -251 0
-63 -323 0
-63 -322 0
64 286 328 0
-64 -286 0
-64 -328 0
65 -66 69 -323 0
65 -66 69 70 0
-65 66 0
-65 -69 0
-65 -70 323 0
66 67 -262 0
66 68 -359 0
66 -262 -359 0
66 67 68 0
-66 -68 262 0
-66 -67 359 0
67 306 360 0
-67 -306 0
-67 -360 0
68 342 343 0
-68 -342 0
-68 -343 0
69 279 316 362 0
-69 -279 0
-69 -362 0
-69 -316 0
70 284 324 0
-70 -284 0
-70 -324 0
71 -72 74 -319 0
71 -72 74 75 0
-71 72 0
-71 -74 0
-71 -75 319 0
72 73 -299 0
72 73 -349 0
72 73 -350 0
-72 -73 0
-72 299 349 350 0
73 293 339 340 0
-73 -293 0
-73 -340 0
-73 -339 0
74 261 340 341 0
-74 -261 0
-74 -341 0
-74 -340 0
75 282 320 0
-75 -282 0
-75 -320 0
76 77 78 -79 0
76 78 -79 328 0
-76 79 0
-76 -78 0
-76 -77 -328 0
77 -254 -311 0
-77 254 0
-77 311 0
78 247 316 317 0
-78 -247 0
-78 -317 0
-78 -316 0
79 80 320 0
79 80 319 321 0
-79 -80 0
-79 -320 -321 0
-79 -319 -320 0
80 285 325 326 0
-80 -285 0
-80 -326 0
-80 -325 0
81 -83 -93 354 0
81 82 -83 -93 0
-81 93 0
-81 83 0
-81 -82 -354 0
-28 82 303 0
-82 -303 0
28 -82 0
83 -84 -86 -89 -91 0
-83 91 0
-83 84 0
-83 89 0
-83 86 0
84 85 -260 0
84 85 -338 0
84 85 -339 0
-84 -85 0
-84 260 338 339 0
85 252 324 325 0
-85 -252 0
-85 -325 0
-85 -324 0
86 87 88 0
86 -256 318 0
86 88 318 0
86 87 -256 0
-86 -87 -318 0
-86 -88 256 0
87 -248 -310 0
-87 248 0
-87 310 0
88 330 331 0
-88 -330 0
-88 -331 0
89 90 -253 0
89 90 -326 0
89 90 -327 0
-89 -90 0
-89 253 326 327 0
90 291 335 336 0
-90 -291 0
-90 -336 0
-90 -335 0
91 92 -250 0
91 92 -320 0
91 92 -321 0
-91 -92 0
-91 250 320 321 0
92 272 356 357 0
-92 -272 0
-92 -357 0
-92 -356 0
93 94 -95 359 0
-67 93 94 -95 0
-93 95 0
-93 -94 0
67 -93 -359 0
94 -323 -324 0
94 -324 -325 0
-94 324 0
-94 323 325 0
95 96 317 0
95 96 316 318 0
-95 -96 0
-95 -317 -318 0
-95 -316 -317 0
96 300 351 352 0
-96 -300 0
-96 -352 0
-96 -351 0
97 -98 -103 -108 -113 0
-97 113 0
-97 98 0
-97 108 0
-97 103 0
98 99 -100 102 0
98 -100 102 354 0
-98 100 0
-98 -102 0
-98 -99 -354 0
99 -270 -314 0
-99 270 0
-99 314 0
100 101 333 0
100 101 332 334 0
-100 -101 0
-100 -333 -334 0
-100 -332 -333 0
101 -349 -350 0
101 -350 -351 0
-101 350 0
-101 349 351 0
102 -361 -362 0
102 -316 -362 0
-102 362 0
-102 316 361 0
103 104 -105 107 0
103 -105 107 360 0
-103 105 0
-103 -107 0
-103 -104 -360 0
104 -274 -315 0
-104 274 0
-104 315 0
105 106 -302 0
105 106 -353 0
105 106 -354 0
-105 -106 0
-105 302 353 354 0
106 266 348 349 0
-106 -266 0
-106 -349 0
-106 -348 0
107 -355 -356 0
107 -356 -357 0
-107 356 0
-107 355 357 0
108 109 110 -111 0
108 109 -111 -263 0
-108 111 0
-108 -109 0
-108 -110 263 0
109 -336 -337 0
109 -337 -338 0
-109 337 0
-109 336 338 0
110 344 345 0
-110 -344 0
-110 -345 0
111 112 326 0
111 112 325 327 0
-111 -112 0
-111 -326 -327 0
-111 -325 -326 0
112 -329 -330 0
112 -330 -331 0
-112 330 0
-112 329 331 0
113 -114 117 -246 0
113 -114 116 117 0
-113 114 0
-113 -117 0
-113 -116 246 0
114 115 335 0
114 115 334 336 0
-114 -115 0
-114 -335 -336 0
-114 -334 -335 0
115 273 358 359 0
-115 -273 0
-115 -359 0
-115 -358 0
116 361 362 0
-116 -361 0
-116 -362 0
117 -338 -339 0
117 -339 -340 0
-117 339 0
-117 338 340 0
118 -120 -124 362 0
118 119 -120 -124 0
-118 124 0
-118 120 0
-118 -119 -362 0
119 279 -316 0
119 -279 316 0
-119 -279 -316 0
-119 279 316 0
120 121 123 0
120 121 345 0
-120 -121 0
-120 -123 -345 0
121 -122 333 0
121 257 332 333 0
-121 -333 0
-121 122 -257 0
-121 122 -332 0
122 290 334 0
-122 -290 0
-122 -334 0
123 296 -346 0
123 -296 346 0
-123 -296 -346 0
-123 296 346 0
124 -125 128 325 0
124 -125 127 128 0
-124 125 0
-124 -128 0
-124 -127 -325 0
29 125 126 0
125 319 355 0
125 126 355 0
29 125 319 0
-29 -125 -355 0
-125 -126 -319 0
126 282 -320 0
126 -282 320 0
-126 -282 -320 0
-126 282 320 0
127 285 -326 0
127 -285 326 0
-127 -285 -326 0
-127 285 326 0
128 -129 -317 0
-128 317 0
-128 129 0
129 280 -318 0
129 -280 318 0
-129 -280 -318 0
-129 280 318 0
130 -131 133 0
130 133 -134 0
130 133 -319 0
-130 -133 0
-130 131 134 319 0
131 -132 -281 0
131 132 281 0
-131 -132 281 0
-131 132 -281 0
132 248 -310 0
132 -248 310 0
-132 -248 -310 0
-132 248 310 0
-123 133 263 344 345 0
123 133 -263 344 345 0
-133 -344 0
-123 -133 -263 0
-133 -345 0
123 -133 263 0
134 -249 282 -320 0
134 -249 -282 320 0
-134 249 0
-134 -282 -320 0
-134 282 320 0
135 -136 -149 -154 -157 0
-135 157 0
-135 136 0
-135 154 0
-135 149 0
136 -137 -140 -143 -147 0
-136 147 0
-136 137 0
-136 143 0
-136 140 0
137 138 139 0
137 333 351 0
137 139 351 0
137 138 333 0
-137 -138 -351 0
-137 -139 -333 0
138 300 -352 0
138 -300 352 0
-138 -300 -352 0
-138 300 352 0
139 290 -334 0
139 -290 334 0
-139 -290 -334 0
-139 290 334 0
140 141 337 0
140 142 323 0
140 141 142 0
140 323 337 0
-140 -141 -323 0
-140 -142 -337 0
141 284 -324 0
141 -284 324 0
-141 -284 -324 0
-141 284 324 0
142 292 -338 0
142 -292 338 0
-142 -292 -338 0
-142 292 338 0
143 -145 -146 343 0
143 144 -145 -146 0
-143 146 0
-143 145 0
-143 -144 -343 0
144 295 -344 0
144 -295 344 0
-144 -295 -344 0
-144 295 344 0
145 352 353 0
145 351 354 0
145 352 354 0
145 351 353 0
-145 -351 -352 0
-145 -353 -354 0
146 328 331 0
146 327 332 0
146 328 332 0
146 327 331 0
-146 -327 -328 0
-146 -331 -332 0
18 147 148 0
147 335 353 0
147 148 353 0
18 147 335 0
-18 -147 -353 0
-147 -148 -335 0
148 291 -336 0
148 -291 336 0
-148 -291 -336 0
-148 291 336 0
8 149 -150 153 0
149 -150 153 347 0
-149 150 0
-149 -153 0
-8 -149 -347 0
150 151 152 0
150 349 357 0
150 152 357 0
150 151 349 0
-150 -151 -357 0
-150 -152 -349 0
151 305 -358 0
151 -305 358 0
-151 -305 -358 0
-151 305 358 0
152 299 -350 0
152 -299 350 0
-152 -299 -350 0
-152 299 350 0
153 -340 -341 0
153 -341 -342 0
153 294 341 342 0
-153 341 -342 0
-153 340 -341 342 0
-153 -294 341 0
154 155 156 0
154 321 341 0
154 156 341 0
154 155 321 0
-154 -155 -341 0
-154 -156 -321 0
155 294 -342 0
155 -294 342 0
-155 -294 -342 0
-155 294 342 0
156 283 -322 0
156 -283 322 0
-156 -283 -322 0
-156 283 322 0
157 158 159 0
157 327 339 0
157 159 339 0
157 158 327 0
-157 -158 -339 0
-157 -159 -327 0
158 293 -340 0
158 -293 340 0
-158 -293 -340 0
-158 293 340 0
159 286 -328 0
159 -286 328 0
-159 -286 -328 0
-159 286 328 0
160 -161 -168 -171 -174 0
-160 174 0
-160 161 0
-160 171 0
-160 168 0
161 162 163 -165 0
161 163 -165 338 0
-161 165 0
-161 -163 0
-161 -162 -338 0
-158 162 -260 0
-162 260 0
158 -162 0
163 164 274 360 0
163 164 315 360 0
-163 -164 0
-163 -360 0
-163 -274 -315 0
164 -274 307 315 0
164 274 307 -315 0
-164 -307 0
-164 -274 -315 0
-164 274 315 0
165 166 167 0
165 332 336 0
165 167 336 0
165 166 332 0
-165 -166 -336 0
-165 -167 -332 0
-142 166 -259 0
-166 259 0
142 -166 0
-139 167 -257 0
-167 257 0
139 -167 0
168 169 361 0
168 170 356 0
168 169 170 0
168 356 361 0
-168 -169 -356 0
-168 -170 -361 0
-151 169 -272 0
-169 272 0
151 -169 0
-119 170 -246 0
-170 246 0
119 -170 0
171 172 348 0
171 173 344 0
171 172 173 0
171 344 348 0
-171 -172 -344 0
-171 -173 -348 0
-123 172 -263 0
-172 263 0
123 -172 0
-152 173 -266 0
-173 266 0
152 -173 0
174 -175 329 0
23 25 174 -175 0
-174 175 0
-25 -174 -329 0
-23 -174 -329 0
175 -176 -289 -332 0
175 -176 331 -332 0
175 -176 -289 331 0
175 -176 289 -331 332 0
-175 289 -331 -332 0
-175 -289 -331 332 0
-175 176 0
-175 289 331 332 0
176 177 334 0
176 178 330 0
176 177 178 0
176 330 334 0
-176 -177 -330 0
-176 -178 -334 0
177 -256 289 -332 0
177 -256 -289 332 0
-177 256 0
-177 -289 -332 0
-177 289 332 0
-148 178 -258 0
-178 258 0
148 -178 0
179 -180 -183 -186 -188 0
-179 188 0
-179 180 0
-179 186 0
-179 183 0
180 181 182 0
180 318 352 0
180 182 352 0
180 181 318 0
-180 -181 -352 0
-180 -182 -318 0
181 -268 301 313 0
181 268 301 -313 0
-181 -301 0
-181 -268 -313 0
-181 268 313 0
-132 182 281 0
-182 -281 0
132 -182 0
183 184 -352 0
-54 183 184 0
-181 183 184 0
-183 -184 0
54 181 -183 352 0
184 185 264 346 0
184 185 312 346 0
-184 -185 0
-184 -346 0
-184 -264 -312 0
185 -264 297 312 0
185 264 297 -312 0
-185 -297 0
-185 -264 -312 0
-185 264 312 0
185 186 187 0
186 326 346 0
186 187 346 0
185 186 326 0
-185 -186 -346 0
-186 -187 -326 0
-159 187 -253 0
-187 253 0
159 -187 0
164 188 189 0
188 340 360 0
188 189 360 0
164 188 340 0
-164 -188 -360 0
-188 -189 -340 0
-155 189 -261 0
-189 261 0
155 -189 0
190 -191 -194 -197 -200 0
-190 200 0
-190 191 0
-190 197 0
-190 194 0
191 192 193 0
191 324 358 0
191 193 358 0
191 192 324 0
-191 -192 -358 0
-191 -193 -324 0
192 -273 306 -360 0
192 -273 -306 360 0
-192 273 0
-192 -306 -360 0
-192 306 360 0
-127 193 -252 0
-193 252 0
127 -193 0
194 195 322 0
194 196 320 0
194 195 196 0
194 320 322 0
-194 -195 -320 0
-194 -196 -322 0
-156 195 -250 0
-195 250 0
156 -195 0
-141 196 -251 0
-196 251 0
141 -196 0
197 198 199 0
197 316 342 0
197 199 342 0
197 198 316 0
-197 -198 -342 0
-197 -199 -316 0
-144 198 -262 0
-198 262 0
144 -198 0
-129 199 -247 0
-199 247 0
129 -199 0
200 201 350 0
200 202 328 0
200 201 202 0
200 328 350 0
-200 -201 -328 0
-200 -202 -350 0
-24 201 287 0
-201 -287 0
24 -201 0
-138 202 -267 0
-202 267 0
138 -202 0
203 -204 214 -216 -218 0
-203 218 0
-203 204 0
-203 216 0
-203 -214 0
204 -205 207 208 -209 0
-204 209 0
-204 -208 0
-204 205 0
-204 -207 0
131 205 206 0
27 134 205 0
134 205 206 0
27 131 205 0
-27 -205 -206 0
-131 -134 -205 0
-29 206 -271 0
-206 271 0
29 -206 0
-141 207 251 322 323 0
141 207 -251 322 323 0
-207 -322 0
-141 -207 -251 0
-207 -323 0
141 -207 251 0
-144 208 262 342 343 0
144 208 -262 342 343 0
-208 -342 0
-144 -208 -262 0
-208 -343 0
144 -208 262 0
27 209 210 -211 0
209 210 -211 355 0
-209 211 0
-209 -210 0
-27 -209 -355 0
-138 210 267 350 351 0
138 210 -267 350 351 0
-210 -350 0
-138 -210 -267 0
-210 -351 0
138 -210 267 0
211 212 213 0
-152 211 213 -266 0
152 211 213 266 0
-211 -213 0
-152 -211 -212 266 0
152 -211 -212 -266 0
212 348 349 0
-212 -348 0
-212 -349 0
-151 213 272 356 357 0
151 213 -272 356 357 0
-213 -356 0
-151 -213 -272 0
-213 -357 0
151 -213 272 0
214 -215 329 0
23 214 255 329 0
-214 -329 0
-214 215 -255 0
-23 -214 215 0
215 288 330 0
-215 -288 0
-215 -330 0
216 217 319 0
-11 131 216 0
-11 216 319 0
131 216 217 0
-131 -216 -319 0
11 -216 -217 0
10 217 275 0
-217 -275 0
-10 -217 0
218 219 220 0
-156 218 220 -250 0
156 218 220 250 0
-218 -220 0
-156 -218 -219 250 0
156 -218 -219 -250 0
219 320 321 0
-219 -320 0
-219 -321 0
220 -221 273 358 359 0
220 221 -273 358 359 0
-220 -358 0
-220 -221 -273 0
-220 -359 0
-220 221 273 0
221 306 -360 0
221 -306 360 0
-221 -306 -360 0
-221 306 360 0
222 -223 -229 -235 -240 0
-222 240 0
-222 223 0
-222 235 0
-222 229 0
223 224 225 -226 0
11 223 225 -226 0
-223 226 0
-223 -225 0
-11 -223 -224 0
-10 224 -275 0
-224 275 0
10 -224 0
-148 225 258 334 335 0
148 225 -258 334 335 0
-225 -334 0
-148 -225 -258 0
-225 -335 0
148 -225 258 0
226 227 228 0
-129 226 228 -247 0
129 226 228 247 0
-226 -228 0
-129 -226 -227 247 0
129 -226 -227 -247 0
227 316 317 0
-227 -316 0
-227 -317 0
-119 228 246 361 362 0
119 228 -246 361 362 0
-228 -361 0
-119 -228 -246 0
-228 -362 0
119 -228 246 0
6 229 230 -231 0
229 230 -231 347 0
-229 231 0
-229 -230 0
-6 -229 -347 0
-155 230 261 340 341 0
155 230 -261 340 341 0
-230 -340 0
-155 -230 -261 0
-230 -341 0
155 -230 261 0
231 232 233 0
-142 231 233 -259 0
142 231 233 259 0
-231 -233 0
-142 -231 -232 259 0
142 -231 -232 -259 0
232 336 337 0
-232 -336 0
-232 -337 0
233 -234 256 330 331 0
233 234 -256 330 331 0
-233 -330 0
-233 -234 -256 0
-233 -331 0
-233 234 256 0
234 289 -332 0
234 -289 332 0
-234 -289 -332 0
-234 289 332 0
16 235 236 -237 0
235 236 -237 353 0
-235 237 0
-235 -236 0
-16 -235 -353 0
-139 236 257 332 333 0
139 236 -257 332 333 0
-236 -332 0
-139 -236 -257 0
-236 -333 0
139 -236 257 0
237 238 239 0
-127 237 239 -252 0
127 237 239 252 0
-237 -239 0
-127 -237 -238 252 0
127 -237 -238 -252 0
238 324 325 0
-238 -324 0
-238 -325 0
-159 239 253 326 327 0
159 239 -253 326 327 0
-239 -326 0
-159 -239 -253 0
-239 -327 0
159 -239 253 0
240 241 242 -243 0
23 240 242 -243 0
-240 243 0
-240 -242 0
-23 -240 -241 0
-25 241 -255 0
-241 255 0
25 -241 0
-158 242 260 338 339 0
158 242 -260 338 339 0
-242 -338 0
-158 -242 -260 0
-242 -339 0
158 -242 260 0
16 243 244 0
6 243 245 0
243 244 245 0
6 16 243 0
-6 -243 -244 0
-16 -243 -245 0
-8 244 -265 0
-244 265 0
8 -244 0
-18 245 -269 0
-245 269 0
18 -245 0
1 -2 0
-1 2 0
363 0

